n_machines = 3;
n_resources = 5;
n_jobs = 48;
horizon = 2461;
LB = 886;
n_jobs_per_resource = [4, 13, 9, 4, 18];
duration = [43, 84, 92, 23, 85, 32, 62, 40, 2, 98, 89, 32, 80, 23, 65, 16, 57, 83, 98, 40, 64, 74, 20, 52, 7, 5, 43, 54, 33, 79, 52, 46, 76, 88, 49, 12, 93, 4, 67, 49, 92, 17, 49, 39, 15, 55, 12, 71]